
Gurobi 11.0.2 (linux64) logging started Tue 03 Dec 2024 09:04:39 AM CET

Set parameter LogFile to value "./res/knapPI_11_50_1000/knapPI_11_50_1000_32/grb_dom.log"
Set parameter Presolve to value 0
Set parameter Aggregate to value 0
Set parameter Heuristics to value 0
Set parameter LPWarmStart to value 0
Set parameter NLPHeur to value 0
Set parameter PreDepRow to value 0
Set parameter PreDual to value 0
Set parameter RINS to value 0
Set parameter Symmetry to value 0
Set parameter NodeLimit to value 1
Set parameter Threads to value 1

Gurobi 11.0.2 (linux64) logging started Tue 03 Dec 2024 09:04:42 AM CET

Set parameter LogFile to value "./res/knapPI_11_50_1000/knapPI_11_50_1000_32/grb_dom.log"
Set parameter NLPHeur to value 0
Set parameter LPWarmStart to value 0
Set parameter PreDepRow to value 0
Set parameter Symmetry to value 0
Set parameter Presolve to value 0
Gurobi Optimizer version 11.0.2 build v11.0.2rc0 (linux64 - "Pop!_OS 20.04 LTS")

CPU model: Intel(R) Core(TM) i7-8650U CPU @ 1.90GHz, instruction set [SSE2|AVX|AVX2]
Thread count: 4 physical cores, 4 logical processors, using up to 1 threads

Optimize a model with 29282 rows, 50 columns and 773846 nonzeros
Model fingerprint: 0x22839930
Variable types: 0 continuous, 50 integer (50 binary)
Coefficient statistics:
  Matrix range     [1e+00, 6e+02]
  Objective range  [2e+01, 7e+02]
  Bounds range     [0e+00, 0e+00]
  RHS range        [5e+03, 5e+03]
Variable types: 0 continuous, 50 integer (50 binary)

Root relaxation: objective 6.753038e+03, 46 iterations, 0.23 seconds (0.05 work units)

    Nodes    |    Current Node    |     Objective Bounds      |     Work
 Expl Unexpl |  Obj  Depth IntInf | Incumbent    BestBd   Gap | It/Node Time

     0     0 6753.03774    0    1          - 6753.03774      -     -    0s
     0     0 6753.03774    0    1          - 6753.03774      -     -    1s
     0     0 6753.03774    0    2          - 6753.03774      -     -    1s
     0     0 6753.03774    0    3          - 6753.03774      -     -    2s
*    0     0               0    6745.0000000 6745.00000  0.00%     -    2s

Cutting planes:
  Gomory: 2
  MIR: 2
  StrongCG: 1
  RLT: 1

Explored 1 nodes (53 simplex iterations) in 2.90 seconds (1.91 work units)
Thread count was 1 (of 4 available processors)

Solution count 1: 6745 

Optimal solution found (tolerance 1.00e-04)
Best objective 6.745000000000e+03, best bound 6.745000000000e+03, gap 0.0000%

User-callback calls 1227, time in user-callback 0.00 sec
opt = true
obj = 6745.0
nb_dom_cuts = 29281
solved_time = 2.9016
opt_val = 6745.0
